Route #1: 129 49 150 106 35 67 24 80 61 78 107 34
Route #2: 143 115 75 38 152 108 94 134 25 95
Route #3: 26 58 69 82 64 57 53 42
Route #4: 13 104 6
Route #5: 47 66 14 144 41 74
Route #6: 132 96 22 3
Route #7: 33 52 103 20 44 54 142 73 128 90
Route #8: 120 101 62 27 32 79 136 123 113 110 105
Route #9: 121 126 140 119 91 137 100 70 4 56 43 151 118 97 114 37
Route #10: 39 89 1 60 92 99 86 40 87 102
Route #11: 139 23 15
Route #12: 30 28 109 145 88
Route #13: 9 29
Route #14: 65 131 111 149 141 5 125 147
Route #15: 16
Route #16: 117 45 148 98 50 85 76 18 81 135 77 48
Route #17: 19 31
Route #18: 112 116 46 133 59 122 51 10 127 72 55 93
Route #19: 124 17 12
Route #20: 36 7 11
Route #21: 130 146 63 68 138 2 84 71
Route #22: 83 8
Route #23: 21
